c Random generated cnf formula, satisfiable: true
p cnf 10 50
-8 6 -9 0
-9 -10 3 0
10 -1 3 0
-4 10 -7 0
-10 -4 -7 0
2 9 5 0
-4 2 -10 0
5 -3 2 0
3 9 -6 0
-2 8 5 0
7 3 -8 0
-5 -10 9 0
-5 -9 -3 0
-9 -6 -8 0
-5 -10 1 0
7 -6 -9 0
1 10 8 0
2 -3 -7 0
4 2 7 0
10 7 -3 0
-2 9 6 0
2 -1 -5 0
-3 -2 10 0
-1 8 9 0
4 3 8 0
6 -1 -8 0
8 -10 2 0
-5 6 1 0
1 4 -10 0
9 3 1 0
-8 -6 3 0
3 -8 2 0
3 -9 4 0
-3 6 1 0
-1 9 10 0
5 -6 3 0
1 -6 -7 0
6 -9 -10 0
3 4 8 0
-4 3 -7 0
-5 4 -8 0
-10 -5 -1 0
-2 -1 -6 0
-3 1 2 0
-6 10 -8 0
-7 -4 -5 0
-5 2 -9 0
1 -5 -2 0
3 -2 1 0
9 2 -4 0
